Route #1: 30 28 109 145
Route #2: 105 110 14 39 74
Route #3: 23 60 86 99 92 150 67 79 136 123 113
Route #4: 88 41 144 66 89 1 40 47 87 102
Route #5: 139 9 29
Route #6: 129 49 80 24 32 35 106 125 111 131 65 147
Route #7: 149 15 5 141
Route #8: 8 83
Route #9: 37 81 127 151 43 118 97 18 114 76 85 50 98 148 45 117
Route #10: 128 73 142 54 44 103 20 135 77 48
Route #11: 56 132 96 22 3
Route #12: 84 2 112 55 93 138 68 63 33 90
Route #13: 130 146 16 143
Route #14: 72 10 126 31 116
Route #15: 134 94 140 119 91 137 100 70 59 122 51 4
Route #16: 124 75 38 108 46 133 19 152 52
Route #17: 121 12 17
Route #18: 11 7 36
Route #19: 53 57 64 82 115 26 58 69 71
Route #20: 21
Route #21: 42 25 95
Route #22: 6 104 13
Route #23: 34 27 62 101 61 78 120 107
Cost 21225
